TIP.Original.Linear/tip2015_weird_nat_op_spec.smt2
(set-logic HORN)
(declare-datatypes ((Nat_198 0)) (((zero_18 ) (succ_18 (p_50 Nat_198)))))
(declare-fun diseqNat_198 (Nat_198 Nat_198) Bool)
(declare-fun p_51 (Nat_198 Nat_198) Bool)
(declare-fun iszero_18 (Nat_198) Bool)
(declare-fun issucc_18 (Nat_198) Bool)
(assert (forall ((x_12403 Nat_198))
	(p_51 x_12403 (succ_18 x_12403))))
(assert (iszero_18 zero_18))
(assert (forall ((x_12405 Nat_198))
	(issucc_18 (succ_18 x_12405))))
(assert (forall ((x_12406 Nat_198))
	(diseqNat_198 zero_18 (succ_18 x_12406))))
(assert (forall ((x_12407 Nat_198))
	(diseqNat_198 (succ_18 x_12407) zero_18)))
(assert (forall ((x_12408 Nat_198) (x_12409 Nat_198))
	(=> (diseqNat_198 x_12408 x_12409)
	    (diseqNat_198 (succ_18 x_12408) (succ_18 x_12409)))))
(declare-fun plus_15 (Nat_198 Nat_198 Nat_198) Bool)
(assert (forall ((x_12358 Nat_198) (z_578 Nat_198) (y_523 Nat_198))
	(=> (plus_15 x_12358 z_578 y_523)
	    (plus_15 (succ_18 x_12358) (succ_18 z_578) y_523))))
(assert (forall ((x_12359 Nat_198))
	(plus_15 x_12359 zero_18 x_12359)))
(declare-fun times_1 (Nat_198 Nat_198 Nat_198) Bool)
(assert (forall ((x_12360 Nat_198) (x_12361 Nat_198) (z_579 Nat_198) (y_524 Nat_198))
	(=>	(and (times_1 x_12361 z_579 y_524)
			(plus_15 x_12360 y_524 x_12361))
		(times_1 x_12360 (succ_18 z_579) y_524))))
(assert (forall ((y_524 Nat_198))
	(times_1 zero_18 zero_18 y_524)))
(declare-fun op_1 (Nat_198 Nat_198 Nat_198 Nat_198 Nat_198) Bool)
(assert (forall ((x_12364 Nat_198) (x_12343 Nat_198) (x_12341 Nat_198) (y_525 Nat_198) (x_12342 Nat_198))
	(=> (op_1 x_12364 x_12341 y_525 x_12343 (succ_18 x_12342))
	    (op_1 x_12364 x_12341 y_525 (succ_18 x_12343) x_12342))))
(assert (forall ((x_12366 Nat_198) (x_12344 Nat_198) (y_525 Nat_198) (x_12342 Nat_198))
	(=> (op_1 x_12366 x_12344 y_525 y_525 x_12342)
	    (op_1 x_12366 (succ_18 x_12344) y_525 zero_18 x_12342))))
(assert (forall ((y_525 Nat_198) (x_12342 Nat_198))
	(op_1 x_12342 zero_18 y_525 zero_18 x_12342)))
(assert (forall ((x_12369 Nat_198) (x_12370 Nat_198) (x_12371 Nat_198) (x_12372 Nat_198) (a_19 Nat_198) (b_14 Nat_198) (c_6 Nat_198) (d_1 Nat_198))
	(=>	(and true
			(diseqNat_198 x_12369 x_12372)
			(op_1 x_12369 a_19 b_14 c_6 d_1)
			(times_1 x_12370 a_19 b_14)
			(plus_15 x_12371 x_12370 c_6)
			(plus_15 x_12372 x_12371 d_1))
		false)))
(assert (forall ((x_12373 Nat_198) (x_12374 Nat_198) (x_12375 Nat_198) (x_12376 Nat_198) (x_12345 Nat_198) (y_526 Nat_198) (z_581 Nat_198))
	(=>	(and true
			(diseqNat_198 x_12374 x_12376)
			(times_1 x_12373 y_526 z_581)
			(times_1 x_12374 x_12345 x_12373)
			(times_1 x_12375 x_12345 y_526)
			(times_1 x_12376 x_12375 z_581))
		false)))
(assert (forall ((x_12377 Nat_198) (x_12378 Nat_198) (x_12379 Nat_198) (x_12380 Nat_198) (x_12346 Nat_198) (y_527 Nat_198) (z_582 Nat_198))
	(=>	(and true
			(diseqNat_198 x_12378 x_12380)
			(plus_15 x_12377 y_527 z_582)
			(plus_15 x_12378 x_12346 x_12377)
			(plus_15 x_12379 x_12346 y_527)
			(plus_15 x_12380 x_12379 z_582))
		false)))
(assert (forall ((x_12381 Nat_198) (x_12382 Nat_198) (x_12347 Nat_198) (y_528 Nat_198))
	(=>	(and true
			(diseqNat_198 x_12381 x_12382)
			(times_1 x_12381 x_12347 y_528)
			(times_1 x_12382 y_528 x_12347))
		false)))
(assert (forall ((x_12383 Nat_198) (x_12384 Nat_198) (x_12348 Nat_198) (y_529 Nat_198))
	(=>	(and true
			(diseqNat_198 x_12383 x_12384)
			(plus_15 x_12383 x_12348 y_529)
			(plus_15 x_12384 y_529 x_12348))
		false)))
(assert (forall ((x_12385 Nat_198) (x_12386 Nat_198) (x_12387 Nat_198) (x_12388 Nat_198) (x_12389 Nat_198) (x_12349 Nat_198) (y_530 Nat_198) (z_583 Nat_198))
	(=>	(and true
			(diseqNat_198 x_12386 x_12389)
			(plus_15 x_12385 y_530 z_583)
			(times_1 x_12386 x_12349 x_12385)
			(times_1 x_12387 x_12349 y_530)
			(times_1 x_12388 x_12349 z_583)
			(plus_15 x_12389 x_12387 x_12388))
		false)))
(assert (forall ((x_12390 Nat_198) (x_12391 Nat_198) (x_12392 Nat_198) (x_12393 Nat_198) (x_12394 Nat_198) (x_12350 Nat_198) (y_531 Nat_198) (z_584 Nat_198))
	(=>	(and true
			(diseqNat_198 x_12391 x_12394)
			(plus_15 x_12390 x_12350 y_531)
			(times_1 x_12391 x_12390 z_584)
			(times_1 x_12392 x_12350 z_584)
			(times_1 x_12393 y_531 z_584)
			(plus_15 x_12394 x_12392 x_12393))
		false)))
(assert (forall ((x_12395 Nat_198) (x_12351 Nat_198))
	(=>	(and true
			(diseqNat_198 x_12395 x_12351)
			(times_1 x_12395 x_12351 (succ_18 zero_18)))
		false)))
(assert (forall ((x_12396 Nat_198) (x_12352 Nat_198))
	(=>	(and true
			(diseqNat_198 x_12396 x_12352)
			(times_1 x_12396 (succ_18 zero_18) x_12352))
		false)))
(assert (forall ((x_12397 Nat_198) (x_12353 Nat_198))
	(=>	(and true
			(diseqNat_198 x_12397 x_12353)
			(plus_15 x_12397 x_12353 zero_18))
		false)))
(assert (forall ((x_12398 Nat_198) (x_12354 Nat_198))
	(=>	(and true
			(diseqNat_198 x_12398 x_12354)
			(plus_15 x_12398 zero_18 x_12354))
		false)))
(assert (forall ((x_12399 Nat_198) (x_12355 Nat_198))
	(=>	(and true
			(diseqNat_198 x_12399 zero_18)
			(times_1 x_12399 x_12355 zero_18))
		false)))
(assert (forall ((x_12400 Nat_198) (x_12356 Nat_198))
	(=>	(and true
			(diseqNat_198 x_12400 zero_18)
			(times_1 x_12400 zero_18 x_12356))
		false)))
(check-sat)
